c b=2,c=1953
p cnf 15 29
2 -4 0
2 -9 0
1 2 -11 0
1 2 -12 0
1 2 -13 0
2 -14 0
-2 4 0
-2 9 0
1 -2 11 0
-2 12 0
-2 13 0
1 -2 14 0
1 -3 0
1 -8 0
1 -10 0
1 -15 0
-1 2 11 0
2 -15 0
-1 -2 -11 0
-1 -2 15 0
-1 3 0
-1 8 0
-1 10 0
-1 12 0
-1 13 0
-1 -14 0
-5 0
-6 0
-7 0
